NAME: Random_45_5
ELLAPSED_TIME_(ms): 0
TOUR_SIZE: 1046.7611
TOUR_SECTION
0
17
3
1
18
35
27
41
21
29
25
38
13
19
31
42
10
36
11
24
30
5
44
37
4
40
28
22
34
32
26
8
9
16
39
43
20
33
23
14
2
6
12
15
7
0
EOF
